Running for instance ./models/rc108.txt
Generating routes...
Execution time:  4.009443  seconds
Academic license - for non-commercial use only
Warning: constraint name "Cliente esta na rota x1" has a space
Optimize a model with 26 rows, 10000 columns and 61187 nonzeros
Variable types: 0 continuous, 10000 integer (0 binary)
Coefficient statistics:
  Matrix range     [1e+00, 1e+00]
  Objective range  [6e+01, 2e+02]
  Bounds range     [1e+00, 1e+00]
  RHS range        [1e+00, 2e+01]
Found heuristic solution: objective 568.5847987
Presolve removed 1 rows and 6183 columns
Presolve time: 0.06s
Presolved: 25 rows, 3817 columns, 16923 nonzeros
Found heuristic solution: objective 462.9409863
Variable types: 0 continuous, 3817 integer (3817 binary)

Root relaxation: objective 3.512805e+02, 90 iterations, 0.00 seconds

    Nodes    |    Current Node    |     Objective Bounds      |     Work
 Expl Unexpl |  Obj  Depth IntInf | Incumbent    BestBd   Gap | It/Node Time

     0     0  351.28054    0   14  462.94099  351.28054  24.1%     -    0s
     0     0  351.28054    0   14  462.94099  351.28054  24.1%     -    0s
H    0     0                     447.1113471  351.28054  21.4%     -    0s
     0     0  351.28054    0   14  447.11135  351.28054  21.4%     -    0s
     0     0  351.28054    0   14  447.11135  351.28054  21.4%     -    0s
     0     2  351.28054    0   14  447.11135  351.28054  21.4%     -    0s
*    6     6               2     437.4886768  355.53347  18.7%   5.5    0s
*   78    31              19     428.2425711  382.73434  10.6%   3.4    0s
*  101    34              25     427.1590053  385.61538  9.73%   3.9    0s
*  124    32              15     424.6232135  393.75625  7.27%   3.8    0s
*  146    15               6     414.6799014  397.01130  4.26%   3.6    0s
H  185    12                     408.8476276  398.23081  2.60%   3.4    0s

Explored 206 nodes (854 simplex iterations) in 0.24 seconds
Thread count was 8 (of 8 available processors)

Solution count 8: 408.848 414.68 424.623 ... 462.941

Optimal solution found (tolerance 1.00e-04)
Best objective 4.088476275707e+02, best bound 4.088476275707e+02, gap 0.0000%

Routes:
22 9 10
2 7 8 6 4 5 3 1
12 14 17 16 15 13 11
19 18 21 25 23 24 20

Distance: 408.847627571
Execution time:  5.091393  seconds
